(set-logic ALL)
(set-option :produce-models true)
(declare-sort BoundSet 0)
(declare-sort UnboundSet 0)
(set-option :finite-model-find true)
(declare-fun IsInSouthernHemisphere (BoundSet) Bool)
(declare-fun IsOccurring (BoundSet) Bool)
(assert (not (=> (exists ((a BoundSet)) (IsInSouthernHemisphere a)) (exists ((c BoundSet)) (IsOccurring c)))))
(check-sat)
(get-model)